BAYES
400
2 2 2 2 2 2 2 2 2 2 2 2 2 2 2 2 2 2 2 2 2 2 2 2 2 2 2 2 2 2 2 2 2 2 2 2 2 2 2 2 2 2 2 2 2 2 2 2 2 2 2 2 2 2 2 2 2 2 2 2 2 2 2 2 2 2 2 2 2 2 2 2 2 2 2 2 2 2 2 2 2 2 2 2 2 2 2 2 2 2 2 2 2 2 2 2 2 2 2 2 2 2 2 2 2 2 2 2 2 2 2 2 2 2 2 2 2 2 2 2 2 2 2 2 2 2 2 2 2 2 2 2 2 2 2 2 2 2 2 2 2 2 2 2 2 2 2 2 2 2 2 2 2 2 2 2 2 2 2 2 2 2 2 2 2 2 2 2 2 2 2 2 2 2 2 2 2 2 2 2 2 2 2 2 2 2 2 2 2 2 2 2 2 2 2 2 2 2 2 2 2 2 2 2 2 2 2 2 2 2 2 2 2 2 2 2 2 2 2 2 2 2 2 2 2 2 2 2 2 2 2 2 2 2 2 2 2 2 2 2 2 2 2 2 2 2 2 2 2 2 2 2 2 2 2 2 2 2 2 2 2 2 2 2 2 2 2 2 2 2 2 2 2 2 2 2 2 2 2 2 2 2 2 2 2 2 2 2 2 2 2 2 2 2 2 2 2 2 2 2 2 2 2 2 2 2 2 2 2 2 2 2 2 2 2 2 2 2 2 2 2 2 2 2 2 2 2 2 2 2 2 2 2 2 2 2 2 2 2 2 2 2 2 2 2 2 2 2 2 2 2 2 2 2 2 2 2 2 2 2 2 2 2 2 2 2 2 2 2 2 2 2 2 2 2 2 2 2 2 2 2 2 2 2 2 2 2 2 2 2 2 2 2 2 2 2 2 2 2 2
400
3 20 1 0
3 21 2 1
3 22 3 2
3 23 4 3
3 24 5 4
3 25 6 5
3 26 7 6
3 27 8 7
3 28 9 8
3 29 10 9
3 30 11 10
3 31 12 11
3 32 13 12
3 33 14 13
3 34 15 14
3 35 16 15
3 36 17 16
3 37 18 17
3 38 19 18
2 39 19
3 40 21 20
3 41 22 21
3 42 23 22
3 43 24 23
3 44 25 24
3 45 26 25
3 46 27 26
3 47 28 27
3 48 29 28
3 49 30 29
3 50 31 30
3 51 32 31
3 52 33 32
3 53 34 33
3 54 35 34
3 55 36 35
3 56 37 36
3 57 38 37
3 58 39 38
2 59 39
3 60 41 40
3 61 42 41
3 62 43 42
3 63 44 43
3 64 45 44
3 65 46 45
3 66 47 46
3 67 48 47
3 68 49 48
3 69 50 49
3 70 51 50
3 71 52 51
3 72 53 52
3 73 54 53
3 74 55 54
3 75 56 55
3 76 57 56
3 77 58 57
3 78 59 58
2 79 59
3 80 61 60
3 81 62 61
3 82 63 62
3 83 64 63
3 84 65 64
3 85 66 65
3 86 67 66
3 87 68 67
3 88 69 68
3 89 70 69
3 90 71 70
3 91 72 71
3 92 73 72
3 93 74 73
3 94 75 74
3 95 76 75
3 96 77 76
3 97 78 77
3 98 79 78
2 99 79
3 100 81 80
3 101 82 81
3 102 83 82
3 103 84 83
3 104 85 84
3 105 86 85
3 106 87 86
3 107 88 87
3 108 89 88
3 109 90 89
3 110 91 90
3 111 92 91
3 112 93 92
3 113 94 93
3 114 95 94
3 115 96 95
3 116 97 96
3 117 98 97
3 118 99 98
2 119 99
3 120 101 100
3 121 102 101
3 122 103 102
3 123 104 103
3 124 105 104
3 125 106 105
3 126 107 106
3 127 108 107
3 128 109 108
3 129 110 109
3 130 111 110
3 131 112 111
3 132 113 112
3 133 114 113
3 134 115 114
3 135 116 115
3 136 117 116
3 137 118 117
3 138 119 118
2 139 119
3 140 121 120
3 141 122 121
3 142 123 122
3 143 124 123
3 144 125 124
3 145 126 125
3 146 127 126
3 147 128 127
3 148 129 128
3 149 130 129
3 150 131 130
3 151 132 131
3 152 133 132
3 153 134 133
3 154 135 134
3 155 136 135
3 156 137 136
3 157 138 137
3 158 139 138
2 159 139
3 160 141 140
3 161 142 141
3 162 143 142
3 163 144 143
3 164 145 144
3 165 146 145
3 166 147 146
3 167 148 147
3 168 149 148
3 169 150 149
3 170 151 150
3 171 152 151
3 172 153 152
3 173 154 153
3 174 155 154
3 175 156 155
3 176 157 156
3 177 158 157
3 178 159 158
2 179 159
3 180 161 160
3 181 162 161
3 182 163 162
3 183 164 163
3 184 165 164
3 185 166 165
3 186 167 166
3 187 168 167
3 188 169 168
3 189 170 169
3 190 171 170
3 191 172 171
3 192 173 172
3 193 174 173
3 194 175 174
3 195 176 175
3 196 177 176
3 197 178 177
3 198 179 178
2 199 179
3 200 181 180
3 201 182 181
3 202 183 182
3 203 184 183
3 204 185 184
3 205 186 185
3 206 187 186
3 207 188 187
3 208 189 188
3 209 190 189
3 210 191 190
3 211 192 191
3 212 193 192
3 213 194 193
3 214 195 194
3 215 196 195
3 216 197 196
3 217 198 197
3 218 199 198
2 219 199
3 220 201 200
3 221 202 201
3 222 203 202
3 223 204 203
3 224 205 204
3 225 206 205
3 226 207 206
3 227 208 207
3 228 209 208
3 229 210 209
3 230 211 210
3 231 212 211
3 232 213 212
3 233 214 213
3 234 215 214
3 235 216 215
3 236 217 216
3 237 218 217
3 238 219 218
2 239 219
3 240 221 220
3 241 222 221
3 242 223 222
3 243 224 223
3 244 225 224
3 245 226 225
3 246 227 226
3 247 228 227
3 248 229 228
3 249 230 229
3 250 231 230
3 251 232 231
3 252 233 232
3 253 234 233
3 254 235 234
3 255 236 235
3 256 237 236
3 257 238 237
3 258 239 238
2 259 239
3 260 241 240
3 261 242 241
3 262 243 242
3 263 244 243
3 264 245 244
3 265 246 245
3 266 247 246
3 267 248 247
3 268 249 248
3 269 250 249
3 270 251 250
3 271 252 251
3 272 253 252
3 273 254 253
3 274 255 254
3 275 256 255
3 276 257 256
3 277 258 257
3 278 259 258
2 279 259
3 280 261 260
3 281 262 261
3 282 263 262
3 283 264 263
3 284 265 264
3 285 266 265
3 286 267 266
3 287 268 267
3 288 269 268
3 289 270 269
3 290 271 270
3 291 272 271
3 292 273 272
3 293 274 273
3 294 275 274
3 295 276 275
3 296 277 276
3 297 278 277
3 298 279 278
2 299 279
3 300 281 280
3 301 282 281
3 302 283 282
3 303 284 283
3 304 285 284
3 305 286 285
3 306 287 286
3 307 288 287
3 308 289 288
3 309 290 289
3 310 291 290
3 311 292 291
3 312 293 292
3 313 294 293
3 314 295 294
3 315 296 295
3 316 297 296
3 317 298 297
3 318 299 298
2 319 299
3 320 301 300
3 321 302 301
3 322 303 302
3 323 304 303
3 324 305 304
3 325 306 305
3 326 307 306
3 327 308 307
3 328 309 308
3 329 310 309
3 330 311 310
3 331 312 311
3 332 313 312
3 333 314 313
3 334 315 314
3 335 316 315
3 336 317 316
3 337 318 317
3 338 319 318
2 339 319
3 340 321 320
3 341 322 321
3 342 323 322
3 343 324 323
3 344 325 324
3 345 326 325
3 346 327 326
3 347 328 327
3 348 329 328
3 349 330 329
3 350 331 330
3 351 332 331
3 352 333 332
3 353 334 333
3 354 335 334
3 355 336 335
3 356 337 336
3 357 338 337
3 358 339 338
2 359 339
3 360 341 340
3 361 342 341
3 362 343 342
3 363 344 343
3 364 345 344
3 365 346 345
3 366 347 346
3 367 348 347
3 368 349 348
3 369 350 349
3 370 351 350
3 371 352 351
3 372 353 352
3 373 354 353
3 374 355 354
3 375 356 355
3 376 357 356
3 377 358 357
3 378 359 358
2 379 359
3 380 361 360
3 381 362 361
3 382 363 362
3 383 364 363
3 384 365 364
3 385 366 365
3 386 367 366
3 387 368 367
3 388 369 368
3 389 370 369
3 390 371 370
3 391 372 371
3 392 373 372
3 393 374 373
3 394 375 374
3 395 376 375
3 396 377 376
3 397 378 377
3 398 379 378
2 399 379
2 381 380
2 382 381
2 383 382
2 384 383
2 385 384
2 386 385
2 387 386
2 388 387
2 389 388
2 390 389
2 391 390
2 392 391
2 393 392
2 394 393
2 395 394
2 396 395
2 397 396
2 398 397
2 399 398
1  399
8
1 0 1 0 0 1 0 1
8
0 1 1 0 0 1 0 1
8
1 0 0 1 1 0 1 0
8
1 0 1 0 0 1 1 0
8
0 1 0 1 0 1 1 0
8
0 1 1 0 1 0 1 0
8
1 0 1 0 1 0 1 0
8
0 1 0 1 0 1 1 0
8
1 0 0 1 1 0 1 0
8
1 0 1 0 0 1 1 0
8
1 0 1 0 0 1 1 0
8
0 1 1 0 0 1 0 1
8
0 1 1 0 1 0 1 0
8
1 0 1 0 1 0 1 0
8
1 0 0 1 1 0 1 0
8
1 0 1 0 0 1 1 0
8
0 1 0 1 1 0 1 0
8
0 1 0 1 0 1 1 0
8
0.7881991181154281 0.21180088188457186 0.5771773355794723 0.4228226644205278 0.7996021746228731 0.20039782537712683 0.03382012837180372 0.9661798716281963
4
0 1 1 0
8
1 0 1 0 1 0 1 0
8
0 1 1 0 0 1 1 0
8
1 0 1 0 1 0 1 0
8
1 0 1 0 1 0 0 1
8
1 0 1 0 0 1 1 0
8
1 0 1 0 0 1 1 0
8
0 1 0 1 0 1 1 0
8
0 1 1 0 0 1 0 1
8
0 1 0 1 0 1 0 1
8
1 0 1 0 0 1 1 0
8
0 1 1 0 1 0 1 0
8
1 0 1 0 0 1 1 0
8
0 1 1 0 1 0 1 0
8
1 0 1 0 1 0 1 0
8
1 0 0 1 0 1 0 1
8
1 0 1 0 0 1 0 1
8
1 0 0 1 1 0 0 1
8
1 0 0 1 1 0 1 0
8
1 0 1 0 1 0 0 1
4
1 0 1 0
8
1 0 1 0 1 0 0 1
8
0 1 0 1 1 0 1 0
8
0 1 1 0 0 1 0 1
8
0.1616063809026756 0.8383936190973245 0.5287312106208609 0.4712687893791392 0.207564685443167 0.792435314556833 0.5551004089124898 0.4448995910875102
8
1 0 1 0 0 1 0 1
8
0.3433473436044062 0.6566526563955939 0.2815822093216135 0.7184177906783865 0.7289050582766419 0.2710949417233581 0.6269229562372023 0.37307704376279766
8
0 1 0 1 1 0 1 0
8
0 1 1 0 0 1 1 0
8
1 0 1 0 0 1 0 1
8
1 0 0 1 1 0 1 0
8
0 1 1 0 1 0 1 0
8
0.7903792148048804 0.2096207851951196 0.7076627322086497 0.29233726779135033 0.6122225791211564 0.3877774208788436 0.7128185403811212 0.28718145961887886
8
0 1 0 1 1 0 1 0
8
0 1 1 0 1 0 1 0
8
0 1 0 1 1 0 1 0
8
1 0 0 1 0 1 0 1
8
0 1 1 0 1 0 1 0
8
1 0 0 1 0 1 0 1
8
0 1 0 1 0 1 1 0
4
0 1 0 1
8
0 1 0 1 1 0 1 0
8
1 0 1 0 1 0 1 0
8
1 0 1 0 1 0 1 0
8
0 1 0 1 1 0 0 1
8
1 0 0 1 1 0 1 0
8
0 1 1 0 1 0 1 0
8
0 1 0 1 0 1 0 1
8
0 1 1 0 0 1 0 1
8
1 0 1 0 1 0 0 1
8
0.6247901813079035 0.3752098186920966 0.5954314726627319 0.40456852733726806 0.6813652682062921 0.318634731793708 0.07454354792010628 0.9254564520798937
8
0.0017252342036644616 0.9982747657963356 0.6376582662404167 0.3623417337595833 0.5806976843283359 0.419302315671664 0.1398306930819052 0.8601693069180948
8
0 1 1 0 1 0 0 1
8
0 1 1 0 0 1 1 0
8
0 1 1 0 0 1 0 1
8
1 0 0 1 0 1 1 0
8
1 0 1 0 1 0 0 1
8
1 0 1 0 0 1 0 1
8
0 1 1 0 0 1 1 0
8
0 1 0 1 1 0 1 0
4
0 1 0 1
8
0 1 1 0 0 1 0 1
8
0 1 1 0 1 0 0 1
8
0.5253133025070533 0.47468669749294673 0.3753775456284537 0.6246224543715464 0.544684123813237 0.45531587618676295 0.6320475376065238 0.36795246239347623
8
0 1 0 1 1 0 1 0
8
0.5102424674371941 0.48975753256280596 0.8605524030159424 0.1394475969840576 0.37385861265984754 0.6261413873401523 0.40738156106536494 0.5926184389346351
8
1 0 1 0 1 0 0 1
8
0 1 0 1 1 0 0 1
8
0 1 1 0 1 0 1 0
8
0 1 1 0 0 1 0 1
8
0 1 0 1 0 1 0 1
8
0 1 0 1 1 0 0 1
8
0.9117800262962868 0.08821997370371311 0.9402886995876941 0.05971130041230582 0.15030719858415473 0.8496928014158452 0.8024190594236718 0.19758094057632827
8
1 0 0 1 0 1 1 0
8
1 0 1 0 1 0 1 0
8
0 1 0 1 1 0 0 1
8
0.5291551430293041 0.47084485697069595 0.19453605792542436 0.8054639420745756 0.44950693587226487 0.5504930641277352 0.7326209784983344 0.26737902150166554
8
1 0 1 0 1 0 1 0
8
0 1 1 0 0 1 1 0
8
0 1 1 0 0 1 0 1
4
1 0 0 1
8
1 0 1 0 1 0 1 0
8
1 0 1 0 1 0 1 0
8
0 1 0 1 0 1 1 0
8
1 0 0 1 0 1 1 0
8
0 1 0 1 0 1 0 1
8
0 1 1 0 1 0 0 1
8
1 0 1 0 0 1 1 0
8
0 1 0 1 1 0 1 0
8
0 1 0 1 1 0 1 0
8
0.696048163390744 0.3039518366092559 0.3149658971432103 0.6850341028567897 0.26851209330009346 0.7314879066999066 0.4187068330753484 0.5812931669246516
8
1 0 1 0 0 1 0 1
8
1 0 1 0 0 1 1 0
8
0 1 1 0 0 1 0 1
8
0 1 1 0 0 1 1 0
8
1 0 1 0 1 0 1 0
8
1 0 1 0 0 1 0 1
8
1 0 0 1 1 0 1 0
8
0 1 1 0 0 1 1 0
8
0.2764138345075962 0.7235861654924038 0.5920519313990386 0.40794806860096144 0.984100204487519 0.015899795512481 0.5657967870892494 0.4342032129107505
4
0 1 1 0
8
1 0 1 0 1 0 0 1
8
1 0 1 0 0 1 1 0
8
0.9771558010488529 0.02284419895114711 0.2972999701014212 0.7027000298985788 0.8737697054011957 0.12623029459880433 0.88951944136488 0.11048055863511999
8
0 1 1 0 1 0 0 1
8
0 1 1 0 0 1 0 1
8
1 0 0 1 0 1 1 0
8
0 1 1 0 1 0 1 0
8
1 0 0 1 0 1 1 0
8
0 1 0 1 1 0 0 1
8
0 1 0 1 1 0 1 0
8
0 1 1 0 0 1 0 1
8
0.3915512705186613 0.6084487294813387 0.6586988474690366 0.3413011525309635 0.25411850287777776 0.7458814971222222 0.5930511182556742 0.40694888174432575
8
1 0 1 0 0 1 0 1
8
0 1 0 1 0 1 1 0
8
1 0 1 0 0 1 1 0
8
1 0 1 0 1 0 0 1
8
1 0 1 0 0 1 0 1
8
1 0 0 1 0 1 0 1
8
0 1 0 1 0 1 1 0
4
0 1 0 1
8
0.37035900605516386 0.6296409939448361 0.4336581764730707 0.5663418235269293 0.9972826847948416 0.00271731520515837 0.38117951255723426 0.6188204874427657
8
0.8090401065272219 0.19095989347277806 0.6846539208405947 0.31534607915940543 0.45569251363771196 0.5443074863622881 0.28410063019547493 0.7158993698045251
8
0 1 1 0 0 1 0 1
8
1 0 0 1 1 0 1 0
8
0 1 1 0 1 0 0 1
8
1 0 1 0 0 1 1 0
8
0 1 1 0 1 0 1 0
8
0 1 0 1 0 1 1 0
8
1 0 0 1 1 0 0 1
8
1 0 1 0 1 0 1 0
8
1 0 0 1 0 1 0 1
8
0.11695269753481405 0.8830473024651859 0.9007004530131137 0.0992995469868862 0.9312270058645029 0.06877299413549715 0.47215365582605645 0.5278463441739436
8
0 1 0 1 1 0 1 0
8
0 1 0 1 1 0 0 1
8
0 1 1 0 0 1 1 0
8
1 0 0 1 1 0 0 1
8
1 0 1 0 1 0 0 1
8
0 1 0 1 1 0 0 1
8
1 0 1 0 1 0 0 1
4
1 0 1 0
8
1 0 0 1 1 0 0 1
8
1 0 1 0 1 0 1 0
8
0 1 1 0 1 0 0 1
8
1 0 0 1 1 0 1 0
8
1 0 1 0 0 1 0 1
8
1 0 0 1 0 1 0 1
8
1 0 0 1 1 0 1 0
8
1 0 1 0 0 1 1 0
8
1 0 0 1 1 0 1 0
8
0 1 0 1 1 0 1 0
8
0 1 1 0 1 0 0 1
8
1 0 0 1 1 0 0 1
8
1 0 0 1 0 1 0 1
8
0 1 1 0 0 1 0 1
8
0 1 0 1 0 1 1 0
8
0 1 1 0 0 1 1 0
8
1 0 0 1 1 0 1 0
8
0 1 1 0 1 0 1 0
8
0 1 0 1 1 0 0 1
4
1 0 0 1
8
1 0 1 0 1 0 1 0
8
1 0 0 1 0 1 0 1
8
0 1 1 0 0 1 0 1
8
0 1 0 1 1 0 1 0
8
1 0 0 1 1 0 0 1
8
1 0 1 0 1 0 1 0
8
1 0 1 0 0 1 0 1
8
0.8314459905634461 0.16855400943655385 0.17933304698223262 0.8206669530177673 0.4263074722019723 0.5736925277980277 0.09911315976907421 0.9008868402309258
8
0 1 0 1 0 1 1 0
8
0.6621803140491093 0.33781968595089074 0.5080047692553958 0.49199523074460416 0.4138274354554106 0.5861725645445893 0.08464317180763586 0.9153568281923642
8
0 1 0 1 0 1 1 0
8
0 1 0 1 1 0 0 1
8
1 0 1 0 1 0 0 1
8
0 1 1 0 1 0 0 1
8
0 1 0 1 1 0 0 1
8
0.015346553718813 0.984653446281187 0.18542115584878563 0.8145788441512144 0.40503214078287536 0.5949678592171248 0.5900017790089108 0.4099982209910891
8
0 1 0 1 0 1 0 1
8
0 1 1 0 1 0 1 0
8
1 0 1 0 0 1 1 0
4
1 0 1 0
8
1 0 0 1 0 1 1 0
8
1 0 0 1 0 1 0 1
8
0 1 1 0 0 1 0 1
8
1 0 0 1 0 1 0 1
8
0 1 0 1 1 0 1 0
8
1 0 1 0 1 0 0 1
8
1 0 0 1 0 1 1 0
8
1 0 1 0 0 1 1 0
8
1 0 1 0 0 1 1 0
8
1 0 1 0 0 1 1 0
8
0 1 1 0 0 1 0 1
8
0 1 1 0 0 1 0 1
8
1 0 0 1 1 0 1 0
8
0 1 0 1 0 1 0 1
8
0 1 0 1 1 0 1 0
8
0 1 1 0 0 1 1 0
8
0 1 0 1 0 1 0 1
8
1 0 1 0 1 0 1 0
8
1 0 1 0 0 1 0 1
4
1 0 1 0
8
1 0 1 0 0 1 0 1
8
0 1 0 1 1 0 0 1
8
0 1 1 0 1 0 0 1
8
0 1 0 1 1 0 1 0
8
0 1 0 1 1 0 1 0
8
0 1 1 0 0 1 1 0
8
0 1 1 0 0 1 1 0
8
1 0 0 1 1 0 0 1
8
0 1 0 1 1 0 0 1
8
1 0 1 0 1 0 0 1
8
1 0 0 1 0 1 1 0
8
1 0 1 0 0 1 0 1
8
1 0 0 1 0 1 0 1
8
0 1 0 1 1 0 1 0
8
0 1 0 1 1 0 1 0
8
0 1 1 0 1 0 0 1
8
0.403054839312129 0.5969451606878711 0.6276755128903535 0.3723244871096465 0.5566271832249353 0.4433728167750646 0.35712992031780416 0.6428700796821959
8
1 0 0 1 1 0 0 1
8
0.40666133629494167 0.5933386637050583 0.4572101918344524 0.5427898081655476 0.49892458563873243 0.5010754143612677 0.5286156422594741 0.4713843577405259
4
1 0 0 1
8
1 0 1 0 0 1 0 1
8
1 0 0 1 1 0 0 1
8
1 0 0 1 0 1 0 1
8
1 0 1 0 0 1 0 1
8
0 1 0 1 0 1 1 0
8
0 1 0 1 1 0 0 1
8
1 0 0 1 0 1 0 1
8
0 1 1 0 0 1 1 0
8
1 0 1 0 0 1 0 1
8
1 0 0 1 0 1 1 0
8
1 0 1 0 1 0 0 1
8
1 0 0 1 1 0 0 1
8
0 1 1 0 1 0 1 0
8
1 0 1 0 0 1 1 0
8
0 1 0 1 0 1 1 0
8
0 1 0 1 0 1 0 1
8
0 1 0 1 0 1 1 0
8
0 1 0 1 1 0 0 1
8
0 1 1 0 1 0 0 1
4
0 1 0 1
8
0 1 0 1 1 0 1 0
8
1 0 0 1 1 0 0 1
8
1 0 1 0 0 1 0 1
8
0 1 1 0 0 1 0 1
8
0 1 0 1 1 0 0 1
8
1 0 1 0 0 1 0 1
8
0 1 0 1 1 0 1 0
8
0.37369053260396523 0.6263094673960348 0.10599563938206616 0.8940043606179339 0.2704443462019094 0.7295556537980906 0.8895129282474517 0.11048707175254836
8
1 0 1 0 1 0 1 0
8
0 1 1 0 1 0 1 0
8
1 0 0 1 1 0 1 0
8
0 1 0 1 1 0 1 0
8
0 1 1 0 0 1 1 0
8
0.6690900013991526 0.33090999860084747 0.5511092164256176 0.44889078357438233 0.5511847114999265 0.44881528850007346 0.9747029606179787 0.025297039382021318
8
0 1 1 0 1 0 1 0
8
0.16731910076343112 0.8326808992365688 0.38271594822984556 0.6172840517701544 0.7503707436666137 0.24962925633338628 0.7807681269360865 0.21923187306391334
8
0 1 1 0 1 0 0 1
8
0 1 1 0 1 0 0 1
8
1 0 0 1 0 1 1 0
4
1 0 0 1
8
1 0 0 1 0 1 0 1
8
0.1900047119610152 0.8099952880389848 0.5993592136757248 0.40064078632427536 0.7317759589403021 0.26822404105969794 0.46511622599677344 0.5348837740032265
8
1 0 1 0 0 1 0 1
8
1 0 0 1 0 1 0 1
8
0 1 1 0 0 1 1 0
8
0 1 0 1 1 0 0 1
8
1 0 1 0 1 0 1 0
8
0 1 1 0 1 0 1 0
8
0 1 1 0 1 0 1 0
8
0 1 1 0 0 1 0 1
8
0 1 1 0 0 1 1 0
8
0 1 0 1 1 0 0 1
8
0 1 1 0 1 0 1 0
8
0 1 0 1 1 0 1 0
8
0.3626055045163414 0.6373944954836586 0.4842245026600683 0.5157754973399317 0.12011956662781396 0.879880433372186 0.7255215596521425 0.27447844034785757
8
0.7562430933971825 0.24375690660281743 0.6823296873055019 0.3176703126944981 0.6877327833022236 0.3122672166977764 0.7985873290125283 0.2014126709874718
8
0 1 1 0 1 0 1 0
8
1 0 1 0 1 0 1 0
8
0.46414743483673554 0.5358525651632645 0.006979722683199353 0.9930202773168006 0.7573284402023135 0.24267155979768645 0.5053409926253124 0.49465900737468765
4
1 0 1 0
8
0.2912430258438713 0.7087569741561287 0.30905006442778943 0.6909499355722104 0.3086141010723263 0.6913858989276738 0.6376387165412932 0.3623612834587068
8
0 1 0 1 0 1 1 0
8
0 1 1 0 0 1 0 1
8
1 0 0 1 0 1 0 1
8
0.5545232276158196 0.4454767723841803 0.05838633696207839 0.9416136630379216 0.012566193038069379 0.9874338069619306 0.5383472669493403 0.4616527330506597
8
1 0 1 0 1 0 0 1
8
1 0 1 0 0 1 0 1
8
1 0 0 1 1 0 1 0
8
1 0 0 1 1 0 0 1
8
1 0 0 1 0 1 1 0
8
0 1 1 0 1 0 1 0
8
0 1 0 1 0 1 1 0
8
1 0 0 1 1 0 0 1
8
1 0 1 0 1 0 1 0
8
0 1 0 1 0 1 1 0
8
1 0 1 0 1 0 1 0
8
1 0 0 1 1 0 0 1
8
0 1 1 0 1 0 0 1
8
0.39038041606582935 0.6096195839341706 0.8229144880513999 0.17708551194860012 0.7666366599614146 0.23336334003858533 0.4381019445767623 0.5618980554232377
4
0 1 1 0
8
1 0 0 1 1 0 1 0
8
1 0 1 0 1 0 0 1
8
0 1 0 1 1 0 0 1
8
0 1 1 0 0 1 0 1
8
0 1 1 0 1 0 1 0
8
0 1 0 1 1 0 0 1
8
1 0 1 0 1 0 1 0
8
1 0 1 0 1 0 1 0
8
0 1 1 0 0 1 1 0
8
0 1 0 1 0 1 0 1
8
1 0 0 1 0 1 1 0
8
0 1 1 0 1 0 1 0
8
0.1862590411455915 0.8137409588544086 0.45657299344018804 0.5434270065598119 0.5409497296613424 0.45905027033865764 0.6314326833442093 0.3685673166557907
8
0.0702614666352397 0.9297385333647603 0.9076862505273793 0.09231374947262064 0.7239917147509669 0.2760082852490331 0.3838797419046485 0.6161202580953515
8
0 1 0 1 0 1 1 0
8
1 0 0 1 1 0 0 1
8
0 1 1 0 0 1 0 1
8
0 1 1 0 1 0 1 0
8
0 1 1 0 1 0 0 1
4
1 0 0 1
8
0 1 0 1 1 0 0 1
8
1 0 0 1 0 1 0 1
8
0 1 1 0 0 1 0 1
8
0 1 1 0 1 0 0 1
8
0 1 0 1 1 0 0 1
8
0 1 1 0 1 0 1 0
8
0 1 1 0 0 1 1 0
8
1 0 1 0 1 0 0 1
8
0 1 1 0 0 1 1 0
8
1 0 0 1 0 1 1 0
8
1 0 0 1 0 1 1 0
8
1 0 0 1 1 0 0 1
8
0 1 1 0 1 0 1 0
8
0.5132785997951932 0.48672140020480686 0.595334983400427 0.404665016599573 0.7798738617063322 0.22012613829366776 0.489896498745005 0.5101035012549949
8
0 1 0 1 0 1 1 0
8
0 1 0 1 1 0 0 1
8
0.5143085375467167 0.4856914624532834 0.3849074187658488 0.6150925812341511 0.717072069263963 0.282927930736037 0.4205448441213594 0.5794551558786405
8
1 0 0 1 1 0 0 1
8
0 1 0 1 0 1 1 0
4
0 1 0 1
8
0.1300145101554512 0.8699854898445489 0.48838162944920926 0.5116183705507907 0.2058649886473742 0.7941350113526258 0.10816974124083545 0.8918302587591646
8
1 0 0 1 0 1 0 1
8
0 1 1 0 0 1 0 1
8
0 1 0 1 1 0 1 0
8
0 1 1 0 0 1 0 1
8
0.4316830142403298 0.5683169857596702 0.5172220417885504 0.48277795821144964 0.5522641027738067 0.44773589722619334 0.46855580184692863 0.5314441981530713
8
0 1 0 1 1 0 0 1
8
1 0 0 1 0 1 1 0
8
0 1 1 0 0 1 0 1
8
0.5303650932040099 0.4696349067959902 0.5406089682260067 0.4593910317739933 0.623625396768346 0.37637460323165395 0.46800887548027764 0.5319911245197224
8
1 0 1 0 1 0 0 1
8
1 0 1 0 1 0 0 1
8
1 0 1 0 0 1 1 0
8
1 0 1 0 1 0 1 0
8
0 1 1 0 1 0 0 1
8
1 0 0 1 0 1 1 0
8
0.5117018727575233 0.4882981272424768 0.6569895642484076 0.3430104357515925 0.7972691907874432 0.20273080921255685 0.09907926114490917 0.9009207388550909
8
0 1 0 1 1 0 0 1
8
0 1 0 1 1 0 1 0
4
0 1 0 1
4
1 0 0 1
4
0 1 1 0
4
1 0 0 1
4
1 0 0 1
4
0 1 0 1
4
0 1 1 0
4
1 0 0 1
4
0 1 0 1
4
1 0 0 1
4
1 0 0 1
4
0 1 0 1
4
1 0 1 0
4
0 1 1 0
4
0 1 0 1
4
1 0 0 1
4
0 1 0 1
4
1 0 0 1
4
1 0 1 0
4
1 0 1 0
2
1 0
